(declare-const x0 Real)
(assert (<= 0.0 x0))
(declare-const x1 Real)
(assert (<= 0.0 x1))
(declare-const x2 Real)
(assert (<= 0.0 x2))
(declare-const x3 Real)
(assert (<= 0.0 x3))
(declare-const x4 Real)
(assert (<= 0.0 x4))
(declare-const x5 Real)
(assert (<= 0.0 x5))
(declare-const x6 Real)
(assert (<= 0.0 x6))
(declare-const x7 Real)
(assert (<= 0.0 x7))
(declare-const x8 Real)
(assert (<= 0.0 x8))
(declare-const x9 Real)
(assert (<= 0.0 x9))
(declare-const x10 Real)
(assert (<= 0.0 x10))
(declare-const x11 Real)
(assert (<= 0.0 x11))
(declare-const x12 Real)
(assert (<= 0.0 x12))

(assert (<= 18.0 (+ (* 11.600000 x0) (* 13.700000 x1) (* 9.500000 x2) (* 48.500000 x3) (* 31.900000 x4) (* 51.100000 x5) (* 65.500000 x6) (* 21.800000 x10) (* 46.900000 x11) (* (- 1.645000) (sqrt (+ (* 0.484400 (^ x0 2.0)) (* 0.300300 (^ x1 2.0)) (* 0.144400 (^ x2 2.0)) (* 0.058800 (^ x3 2.0)) (* 4.986300 (^ x4 2.0)) (* 0.065300 (^ x5 2.0)) (* 21.022200 (^ x6 2.0)) (* 0.297000 (^ x10 2.0)) (* 9.293300 (^ x11 2.0))))))))
(assert (<= 1.0 (+ (* 0.050000 x0) (* 0.070000 x1) (* 0.330000 x3) (* 1.270000 x5) (* 1.270000 x6) (* 23.350000 x7) (* 35.840000 x8) (* 0.810000 x9) (* 1.790000 x10) (* 7.340000 x11) (* (- 1.645000) (sqrt (+ (* 0.000100 (^ x0 2.0)) (* 0.004000 (^ x5 2.0)) (* 0.140400 (^ x6 2.0)) (* 1.363100 (^ x7 2.0)) (* 0.513800 (^ x8 2.0)) (* 0.028900 (^ x9 2.0)) (* 0.009700 (^ x10 2.0)) (* 0.389300 (^ x11 2.0))))))))
(assert (<= 0.900000 (+ (* 0.350000 x0) (* 0.370000 x1) (* 0.100000 x2) (* 0.620000 x3) (* 1.030000 x5) (* 1.690000 x6) (* 18.210000 x7) (* 0.010000 x8) (* 0.080000 x9) (* 0.310000 x10) (* 1.590000 x11) (* 22.450000 x12) (* (- 1.645000) (sqrt (+ (* 0.001000 (^ x0 2.0)) (* 0.000900 (^ x1 2.0)) (* 0.000100 (^ x2 2.0)) (* 0.000500 (^ x3 2.0)) (* 0.002100 (^ x5 2.0)) (* 0.082500 (^ x6 2.0)) (* 0.207300 (^ x7 2.0)) (* 0.000400 (^ x9 2.0)) (* 0.000500 (^ x10 2.0)) (* 0.010700 (^ x11 2.0)) (* 1.020600 (^ x12 2.0))))))))
(assert (= (+ (* 1.0 x0) (* 1.0 x1) (* 1.0 x2) (* 1.0 x3) (* 1.0 x4) (* 1.0 x5) (* 1.0 x6) (* 1.0 x7) (* 1.0 x8) (* 1.0 x9) (* 1.0 x10) (* 1.0 x11) (* 1.0 x12)) 1.0))

(minimize
	(+ (* 0.800000 x0) (* 1.100000 x1) (* 0.850000 x2) (* 3.450000 x3) (* 2.0 x4) (* 2.100000 x5) (* 3.0 x6) (* 0.800000 x7) (* 0.450000 x8) (* 0.720000 x9) (* 1.800000 x10) (* 3.0 x11) (* 0.600000 x12))
)
(check-sat)
(get-objectives)
(exit)

